DIR: 0.0, EFF: 0.1, INT: 0.0, OBJ: 0.9
original problem has 232 variables (211 bin, 21 int, 0 impl, 0 cont) and 199 constraints
unknown variable <t_X00232> in line 2 of solution file </mnt/lscratch/users/dferrario/Adaptive-Cutsel-MILP/TransformedSolutions/22433__trans__seed__1.sol>
  (further unknown variables are ignored)
1/1 feasible solution given by solution candidate storage, new primal bound 2.147700e+04

presolving:
   (0.0s) running MILP presolver
   (0.0s) MILP presolver found nothing
   (0.0s) probing: 51/211 (24.2%) - 0 fixings, 0 aggregations, 0 implications, 0 bound changes
   (0.0s) probing aborted: 50/50 successive totally useless probings
presolving (1 rounds: 1 fast, 1 medium, 1 exhaustive):
 20 deleted vars, 1 deleted constraints, 1 added constraints, 1 tightened bounds, 0 added holes, 228 changed sides, 228 changed coefficients
 0 implications, 5 cliques
presolved problem has 212 variables (211 bin, 0 int, 1 impl, 0 cont) and 199 constraints
     67 constraints of type <knapsack>
      5 constraints of type <setppc>
      2 constraints of type <linear>
    125 constraints of type <logicor>
transformed objective value is always integral (scale: 1)
Presolving Time: 0.01

 time | node  | left  |LP iter|LP it/n|mem/heur|mdpt |vars |cons |rows |cuts |sepa|confs|strbr|  dualbound   | primalbound  |  gap   | compl. 
  0.0s|     1 |     0 |   689 |     - |  4016k |   0 | 212 | 199 | 199 |   0 |  0 |   0 |   0 | 2.124100e+04 | 2.147700e+04 |   1.11%| unknown
Computing relative interior point (time limit: 1e+20, iter limit: 6890) ...
  0.1s|     1 |     0 |   835 |     - |    12M |   0 | 212 | 199 | 209 |  10 |  1 |   0 |   0 | 2.127753e+04 | 2.147700e+04 |   0.94%| unknown
  0.2s|     1 |     0 |   953 |     - |    17M |   0 | 213 | 199 | 219 |  20 |  2 |   0 |   0 | 2.127753e+04 | 2.147700e+04 |   0.94%| unknown
  0.2s|     1 |     0 |   953 |     - |    17M |   0 | 213 | 199 | 219 |  20 |  2 |   0 |   0 | 2.129265e+04 | 2.147700e+04 |   0.87%| unknown
  0.2s|     1 |     0 |  1093 |     - |    20M |   0 | 213 | 199 | 229 |  30 |  3 |   0 |   0 | 2.130557e+04 | 2.147700e+04 |   0.80%| unknown
  0.3s|     1 |     0 |  1311 |     - |    27M |   0 | 213 | 199 | 238 |  39 |  4 |   0 |   0 | 2.131832e+04 | 2.147700e+04 |   0.74%| unknown
  0.3s|     1 |     0 |  1509 |     - |    32M |   0 | 213 | 199 | 248 |  49 |  5 |   0 |   0 | 2.132851e+04 | 2.147700e+04 |   0.70%| unknown
  0.4s|     1 |     0 |  1717 |     - |    38M |   0 | 213 | 199 | 258 |  59 |  6 |   0 |   0 | 2.133383e+04 | 2.147700e+04 |   0.67%| unknown
  0.5s|     1 |     0 |  1842 |     - |    44M |   0 | 213 | 199 | 261 |  69 |  7 |   0 |   0 | 2.133553e+04 | 2.147700e+04 |   0.66%| unknown
  0.6s|     1 |     0 |  1913 |     - |    53M |   0 | 213 | 199 | 271 |  79 |  8 |   0 |   0 | 2.133833e+04 | 2.147700e+04 |   0.65%| unknown
  0.7s|     1 |     0 |  2086 |     - |    54M |   0 | 213 | 199 | 281 |  89 |  9 |   0 |   0 | 2.133916e+04 | 2.147700e+04 |   0.65%| unknown
  0.8s|     1 |     0 |  2210 |     - |    59M |   0 | 213 | 199 | 291 |  99 | 10 |   0 |   0 | 2.134010e+04 | 2.147700e+04 |   0.64%| unknown
  0.9s|     1 |     0 |  2348 |     - |    61M |   0 | 213 | 199 | 279 | 109 | 11 |   0 |   0 | 2.134229e+04 | 2.147700e+04 |   0.63%| unknown
  1.0s|     1 |     0 |  2512 |     - |    66M |   0 | 213 | 199 | 289 | 119 | 12 |   0 |   0 | 2.134300e+04 | 2.147700e+04 |   0.63%| unknown
  1.1s|     1 |     0 |  2779 |     - |    68M |   0 | 213 | 199 | 299 | 129 | 13 |   0 |   0 | 2.134311e+04 | 2.147700e+04 |   0.63%| unknown
 time | node  | left  |LP iter|LP it/n|mem/heur|mdpt |vars |cons |rows |cuts |sepa|confs|strbr|  dualbound   | primalbound  |  gap   | compl. 
  1.2s|     1 |     0 |  2833 |     - |    74M |   0 | 213 | 199 | 309 | 139 | 14 |   0 |   0 | 2.134345e+04 | 2.147700e+04 |   0.63%| unknown
  1.3s|     1 |     0 |  2938 |     - |    74M |   0 | 213 | 199 | 319 | 149 | 15 |   0 |   0 | 2.134378e+04 | 2.147700e+04 |   0.62%| unknown
  1.5s|     1 |     0 |  2978 |     - |    83M |   0 | 213 | 199 | 302 | 159 | 16 |   0 |   0 | 2.134400e+04 | 2.147700e+04 |   0.62%| unknown
  1.6s|     1 |     0 |  3063 |     - |    85M |   0 | 213 | 199 | 312 | 169 | 17 |   0 |   0 | 2.134422e+04 | 2.147700e+04 |   0.62%| unknown
  1.7s|     1 |     0 |  3128 |     - |    87M |   0 | 213 | 199 | 322 | 179 | 18 |   0 |   0 | 2.134451e+04 | 2.147700e+04 |   0.62%| unknown
  1.9s|     1 |     0 |  3202 |     - |    98M |   0 | 213 | 199 | 332 | 189 | 19 |   0 |   0 | 2.134527e+04 | 2.147700e+04 |   0.62%| unknown
  2.0s|     1 |     0 |  3278 |     - |   100M |   0 | 213 | 199 | 342 | 199 | 20 |   0 |   0 | 2.134909e+04 | 2.147700e+04 |   0.60%| unknown
  2.2s|     1 |     0 |  3403 |     - |   101M |   0 | 213 | 199 | 312 | 209 | 21 |   0 |   0 | 2.135152e+04 | 2.147700e+04 |   0.59%| unknown
  2.3s|     1 |     0 |  3461 |     - |   114M |   0 | 213 | 199 | 322 | 219 | 22 |   0 |   0 | 2.135201e+04 | 2.147700e+04 |   0.59%| unknown
  2.4s|     1 |     0 |  3552 |     - |   116M |   0 | 213 | 199 | 332 | 229 | 23 |   0 |   0 | 2.135249e+04 | 2.147700e+04 |   0.58%| unknown
  2.6s|     1 |     0 |  3622 |     - |   117M |   0 | 213 | 199 | 342 | 239 | 24 |   0 |   0 | 2.135318e+04 | 2.147700e+04 |   0.58%| unknown
  2.7s|     1 |     0 |  3823 |     - |   117M |   0 | 213 | 199 | 352 | 249 | 25 |   0 |   0 | 2.135416e+04 | 2.147700e+04 |   0.58%| unknown
  2.9s|     1 |     0 |  3879 |     - |   134M |   0 | 213 | 199 | 310 | 259 | 26 |   0 |   0 | 2.135493e+04 | 2.147700e+04 |   0.57%| unknown
  3.0s|     1 |     0 |  3943 |     - |   135M |   0 | 213 | 199 | 320 | 269 | 27 |   0 |   0 | 2.135595e+04 | 2.147700e+04 |   0.57%| unknown
  3.1s|     1 |     0 |  4018 |     - |   137M |   0 | 213 | 199 | 330 | 279 | 28 |   0 |   0 | 2.135719e+04 | 2.147700e+04 |   0.56%| unknown
 time | node  | left  |LP iter|LP it/n|mem/heur|mdpt |vars |cons |rows |cuts |sepa|confs|strbr|  dualbound   | primalbound  |  gap   | compl. 
  3.3s|     1 |     0 |  4265 |     - |   137M |   0 | 213 | 199 | 340 | 289 | 29 |   0 |   0 | 2.135890e+04 | 2.147700e+04 |   0.55%| unknown
  3.4s|     1 |     0 |  4336 |     - |   138M |   0 | 213 | 199 | 350 | 299 | 30 |   0 |   0 | 2.136046e+04 | 2.147700e+04 |   0.55%| unknown
  3.6s|     1 |     0 |  4399 |     - |   159M |   0 | 213 | 199 | 311 | 309 | 31 |   0 |   0 | 2.136157e+04 | 2.147700e+04 |   0.54%| unknown
  3.7s|     1 |     0 |  4481 |     - |   159M |   0 | 213 | 199 | 321 | 319 | 32 |   0 |   0 | 2.136235e+04 | 2.147700e+04 |   0.54%| unknown
  3.8s|     1 |     0 |  4644 |     - |   160M |   0 | 213 | 199 | 331 | 329 | 33 |   0 |   0 | 2.136300e+04 | 2.147700e+04 |   0.53%| unknown
  4.0s|     1 |     0 |  4884 |     - |   162M |   0 | 213 | 199 | 341 | 339 | 34 |   0 |   0 | 2.136308e+04 | 2.147700e+04 |   0.53%| unknown
  4.1s|     1 |     0 |  4972 |     - |   164M |   0 | 213 | 199 | 351 | 349 | 35 |   0 |   0 | 2.136415e+04 | 2.147700e+04 |   0.53%| unknown
  4.3s|     1 |     0 |  5058 |     - |   185M |   0 | 213 | 199 | 310 | 359 | 36 |   0 |   0 | 2.136529e+04 | 2.147700e+04 |   0.52%| unknown
  4.4s|     1 |     0 |  5169 |     - |   188M |   0 | 213 | 199 | 320 | 369 | 37 |   0 |   0 | 2.136600e+04 | 2.147700e+04 |   0.52%| unknown
  4.5s|     1 |     0 |  5295 |     - |   190M |   0 | 213 | 199 | 330 | 379 | 38 |   0 |   0 | 2.136600e+04 | 2.147700e+04 |   0.52%| unknown
  4.7s|     1 |     0 |  5444 |     - |   191M |   0 | 213 | 199 | 340 | 389 | 39 |   0 |   0 | 2.136601e+04 | 2.147700e+04 |   0.52%| unknown
  4.8s|     1 |     0 |  5530 |     - |   192M |   0 | 213 | 199 | 350 | 399 | 40 |   0 |   0 | 2.136700e+04 | 2.147700e+04 |   0.51%| unknown
  5.0s|     1 |     0 |  5757 |     - |   193M |   0 | 213 | 199 | 360 | 409 | 41 |   0 |   0 | 2.136797e+04 | 2.147700e+04 |   0.51%| unknown
  5.1s|     1 |     0 |  6019 |     - |   222M |   0 | 213 | 199 | 330 | 419 | 42 |   0 |   0 | 2.136924e+04 | 2.147700e+04 |   0.50%| unknown
  5.3s|     1 |     0 |  6118 |     - |   223M |   0 | 213 | 199 | 340 | 429 | 43 |   0 |   0 | 2.137133e+04 | 2.147700e+04 |   0.49%| unknown
 time | node  | left  |LP iter|LP it/n|mem/heur|mdpt |vars |cons |rows |cuts |sepa|confs|strbr|  dualbound   | primalbound  |  gap   | compl. 
  5.4s|     1 |     0 |  6199 |     - |   223M |   0 | 213 | 199 | 350 | 439 | 44 |   0 |   0 | 2.137299e+04 | 2.147700e+04 |   0.49%| unknown
  5.6s|     1 |     0 |  6517 |     - |   225M |   0 | 213 | 199 | 358 | 447 | 45 |   0 |   0 | 2.137361e+04 | 2.147700e+04 |   0.48%| unknown
  5.7s|     1 |     0 |  6601 |     - |   226M |   0 | 213 | 199 | 313 | 457 | 46 |   0 |   0 | 2.137390e+04 | 2.147700e+04 |   0.48%| unknown
  5.8s|     1 |     0 |  6698 |     - |   228M |   0 | 213 | 199 | 323 | 467 | 47 |   0 |   0 | 2.137427e+04 | 2.147700e+04 |   0.48%| unknown
  5.9s|     1 |     0 |  6778 |     - |   228M |   0 | 213 | 199 | 333 | 477 | 48 |   0 |   0 | 2.137500e+04 | 2.147700e+04 |   0.48%| unknown
  6.1s|     1 |     0 |  6838 |     - |   265M |   0 | 213 | 199 | 343 | 487 | 49 |   0 |   0 | 2.137500e+04 | 2.147700e+04 |   0.48%| unknown
  6.1s|     1 |     0 |  6850 |     - |   265M |   0 | 213 | 199 | 345 | 489 | 50 |   0 |   0 | 2.137500e+04 | 2.147700e+04 |   0.48%| unknown
  6.1s|     1 |     2 |  6850 |     - |   265M |   0 | 213 | 199 | 345 | 489 | 50 |   0 |   0 | 2.137500e+04 | 2.147700e+04 |   0.48%| unknown

SCIP Status        : solving was interrupted [node limit reached]
Solving Time (sec) : 6.10
Solving Nodes      : 1
Primal Bound       : +2.14770000000000e+04 (1 solutions)
Dual Bound         : +2.13750000000000e+04
Gap                : 0.48 %
